/*********************************************
 * OPL 12.6.0.0 Data
 * Author: bscuser
 * Creation Date: 26/11/2014 at 11:21:42
 *********************************************/
Nn=6;
Nm=2;
No=6;
p=2.5;

s=[2 3 1 10 4 6];
c=[20 15];
e=[4 4 1 2 4 3];
conf=[
[2 1 2]
[3 1 3]
[4 2 5]
[1 3 6]
[5 2 6]
[2 4 1]
];
